sat
(:max-memory          18.09
 :memory              17.68
 :num-allocs          143529
 :rlimit-count        11669
 :sls-arith-steps     243
 :sls-ddfw-flips      405.00
 :sls-ddfw-shifts     172.00
 :solve-eqs-elim-vars 14
 :solve-eqs-steps     320
 :time                0.00
 :total-time          0.01)
